NAME: random-40-16859
TYPE: TSP
COMMENT: size=40 seed=16859
DIMENSION: 82
EDGE_WEIGHT_TYPE: EUC_2D
NODE_COORD_SECTION
+0 213 492
-0 213 492
+1 163 571
-1 225 934
+2 413 252
-2 105 603
+3 805 524
-3 886 367
+4 735 748
-4 352 186
+5 691 205
-5 968 21
+6 585 146
-6 191 274
+7 533 578
-7 814 231
+8 480 753
-8 167 896
+9 706 447
-9 932 366
+10 545 340
-10 186 724
+11 614 380
-11 596 164
+12 387 684
-12 325 489
+13 996 698
-13 580 781
+14 822 313
-14 54 90
+15 801 359
-15 103 50
+16 508 158
-16 801 209
+17 86 226
-17 655 707
+18 328 485
-18 678 216
+19 756 356
-19 889 23
+20 253 635
-20 562 277
+21 964 894
-21 631 873
+22 106 922
-22 135 549
+23 496 147
-23 613 680
+24 335 494
-24 862 755
+25 833 987
-25 415 370
+26 306 383
-26 74 644
+27 76 795
-27 549 524
+28 152 973
-28 967 817
+29 607 599
-29 809 802
+30 842 500
-30 896 224
+31 214 510
-31 703 802
+32 451 967
-32 587 64
+33 940 426
-33 765 447
+34 30 519
-34 736 974
+35 454 600
-35 670 404
+36 825 133
-36 430 880
+37 15 109
-37 467 841
+38 377 572
-38 832 181
+39 259 427
-39 835 501
+40 491 950
-40 106 808
PRECEDENCE_SECTION
+0 -0
+1 -1
+2 -2
+3 -3
+4 -4
+5 -5
+6 -6
+7 -7
+8 -8
+9 -9
+10 -10
+11 -11
+12 -12
+13 -13
+14 -14
+15 -15
+16 -16
+17 -17
+18 -18
+19 -19
+20 -20
+21 -21
+22 -22
+23 -23
+24 -24
+25 -25
+26 -26
+27 -27
+28 -28
+29 -29
+30 -30
+31 -31
+32 -32
+33 -33
+34 -34
+35 -35
+36 -36
+37 -37
+38 -38
+39 -39
+40 -40
EOF
